15 39 485
39 46 214
46 36 402
36 1 8989
1 27 4123
27 33 4053
33 42 4807
42 45 1302
45 11 436
11 31 732
31 25 299
25 52 874
52 2 598
2 14 433
14 12 816
12 18 768
18 4 606
4 30 380
30 47 944
47 9 1162
9 10 803
10 22 117
22 53 858
53 34 396
34 54 401
54 26 967
26 49 560
49 55 711
55 28 487
28 6 404
6 3 385
3 43 1096
43 40 1279
40 51 1042
51 37 590
37 7 517
7 20 846
20 50 763
50 38 1180
38 8 368
8 24 881
24 35 296
35 5 323
5 13 723
13 41 686
41 32 362
32 44 676
44 19 1282
19 48 897
48 17 415
17 23 619
23 21 176
21 29 516
29 16 1147
16 15 556
